50
324 621 9 983 823 1000 264 200 55 194 25 692 366 816 761 350 167 348 31 649 190 149 889 438 947 981 664 250 148 247 737 512 298 18 352 393 70 250 296 416 494 566 850 295 95 304 217 576 477 322 
624 821 209 1183 1023 1200 564 400 255 394 225 892 666 1116 961 550 367 648 231 849 390 349 1089 738 1147 1181 864 450 348 447 937 712 498 318 552 593 270 450 496 616 694 766 1050 495 295 504 417 876 677 522 
10452
